# Objective value = 634
cmax 634
x_1_1 1
x_2_1 1
x_3_1 1
x_4_1 1
x_5_1 1
x_6_1 1
x_7_1 1
x_8_1 1
t_1_1_1 0
t_1_1_2 269
t_1_1_3 484
t_2_1_1 87
t_2_1_2 4.1800000000000011e+02
t_2_1_3 484
t_3_1_1 0
t_3_1_2 124
t_3_1_3 269
t_4_1_1 0
t_4_1_2 65
t_4_1_3 3.1000000000000006e+02
t_5_1_1 65
t_5_1_2 245
t_5_1_3 534
t_6_1_1 188
t_6_1_2 3.6899999999999989e+02
t_6_1_3 514
t_7_1_1 9.9999999999999886e+01
t_7_1_2 2.4499999999999989e+02
t_7_1_3 369
t_8_1_1 0
t_8_1_2 245
t_8_1_3 469
a_1_1_1_0 0
a_1_1_1_1 0
a_1_1_1_2 1
a_1_1_2_3 0
a_1_1_2_1 0
a_1_1_2_6 1
a_1_1_3_3 1
a_1_1_3_4 0
a_1_1_3_6 0
a_2_1_1_0 1
a_2_1_1_2 0
a_2_1_2_2 0
a_2_1_2_1 1
a_2_1_3_4 0
a_2_1_3_5 0
a_2_1_3_6 1
a_3_1_1_0 1
a_3_1_1_1 0
a_3_1_2_6 1
a_3_1_2_2 0
a_3_1_2_3 0
a_3_1_3_3 0
a_3_1_3_4 1
a_3_1_3_5 0
a_4_1_1_0 0
a_4_1_1_1 1
a_4_1_2_2 0
a_4_1_2_4 1
a_4_1_3_3 1
a_4_1_3_5 0
a_5_1_1_1 1
a_5_1_1_2 0
a_5_1_1_0 0
a_5_1_2_6 0
a_5_1_2_3 1
a_5_1_2_4 0
a_5_1_3_4 0
a_5_1_3_5 0
a_5_1_3_1 1
a_6_1_1_1 1
a_6_1_1_2 0
a_6_1_1_3 0
a_6_1_2_3 0
a_6_1_2_2 1
a_6_1_2_4 0
a_6_1_3_4 1
a_6_1_3_5 0
a_6_1_3_6 0
a_7_1_1_2 1
a_7_1_1_1 0
a_7_1_2_2 1
a_7_1_2_4 0
a_7_1_3_4 1
a_7_1_3_5 0
a_7_1_3_6 0
a_8_1_1_3 1
a_8_1_1_2 0
a_8_1_2_5 1
a_8_1_2_4 0
a_8_1_3_4 0
a_8_1_3_5 1
a_8_1_3_6 0
B_1_1_1_1_1_1 0
B_1_1_1_1_1_2 0
B_1_1_1_1_1_3 0
B_1_1_1_2_1_1 1
B_1_1_1_2_1_2 1
B_1_1_1_2_1_3 0
B_1_1_1_3_1_1 0
B_1_1_1_3_1_2 1
B_1_1_1_3_1_3 0
B_1_1_1_4_1_1 0
B_1_1_1_4_1_2 1
B_1_1_1_4_1_3 0
B_1_1_1_5_1_1 1
B_1_1_1_5_1_2 0
B_1_1_1_5_1_3 1
B_1_1_1_6_1_1 1
B_1_1_1_6_1_2 1
B_1_1_1_6_1_3 0
B_1_1_1_7_1_1 1
B_1_1_1_7_1_2 1
B_1_1_1_7_1_3 0
B_1_1_1_8_1_1 1
B_1_1_1_8_1_2 0
B_1_1_1_8_1_3 0
B_1_1_2_1_1_1 0
B_1_1_2_1_1_2 0
B_1_1_2_1_1_3 0
B_1_1_2_2_1_1 0
B_1_1_2_2_1_2 1
B_1_1_2_2_1_3 1
B_1_1_2_3_1_1 0
B_1_1_2_3_1_2 0
B_1_1_2_3_1_3 0
B_1_1_2_4_1_1 0
B_1_1_2_4_1_2 0
B_1_1_2_4_1_3 0
B_1_1_2_5_1_1 1
B_1_1_2_5_1_2 0
B_1_1_2_5_1_3 1
B_1_1_2_6_1_1 1
B_1_1_2_6_1_2 0
B_1_1_2_6_1_3 1
B_1_1_2_7_1_1 0
B_1_1_2_7_1_2 0
B_1_1_2_7_1_3 1
B_1_1_2_8_1_1 0
B_1_1_2_8_1_2 0
B_1_1_2_8_1_3 1
B_1_1_3_1_1_1 0
B_1_1_3_1_1_2 0
B_1_1_3_1_1_3 0
B_1_1_3_2_1_1 0
B_1_1_3_2_1_2 0
B_1_1_3_2_1_3 0
B_1_1_3_3_1_1 0
B_1_1_3_3_1_2 0
B_1_1_3_3_1_3 1
B_1_1_3_4_1_1 0
B_1_1_3_4_1_2 0
B_1_1_3_4_1_3 0
B_1_1_3_5_1_1 0
B_1_1_3_5_1_2 0
B_1_1_3_5_1_3 0
B_1_1_3_6_1_1 0
B_1_1_3_6_1_2 0
B_1_1_3_6_1_3 0
B_1_1_3_7_1_1 0
B_1_1_3_7_1_2 0
B_1_1_3_7_1_3 0
B_1_1_3_8_1_1 0
B_1_1_3_8_1_2 1
B_1_1_3_8_1_3 0
B_2_1_1_1_1_1 0
B_2_1_1_1_1_2 0
B_2_1_1_1_1_3 0
B_2_1_1_2_1_1 0
B_2_1_1_2_1_2 0
B_2_1_1_2_1_3 0
B_2_1_1_3_1_1 0
B_2_1_1_3_1_2 0
B_2_1_1_3_1_3 0
B_2_1_1_4_1_1 0
B_2_1_1_4_1_2 0
B_2_1_1_4_1_3 0
B_2_1_1_5_1_1 0
B_2_1_1_5_1_2 0
B_2_1_1_5_1_3 0
B_2_1_1_6_1_1 0
B_2_1_1_6_1_2 1
B_2_1_1_6_1_3 0
B_2_1_1_7_1_1 0
B_2_1_1_7_1_2 1
B_2_1_1_7_1_3 0
B_2_1_1_8_1_1 0
B_2_1_1_8_1_2 0
B_2_1_1_8_1_3 0
B_2_1_2_1_1_1 0
B_2_1_2_1_1_2 0
B_2_1_2_1_1_3 0
B_2_1_2_2_1_1 0
B_2_1_2_2_1_2 0
B_2_1_2_2_1_3 0
B_2_1_2_3_1_1 0
B_2_1_2_3_1_2 0
B_2_1_2_3_1_3 0
B_2_1_2_4_1_1 0
B_2_1_2_4_1_2 0
B_2_1_2_4_1_3 0
B_2_1_2_5_1_1 0
B_2_1_2_5_1_2 0
B_2_1_2_5_1_3 1
B_2_1_2_6_1_1 0
B_2_1_2_6_1_2 0
B_2_1_2_6_1_3 0
B_2_1_2_7_1_1 0
B_2_1_2_7_1_2 0
B_2_1_2_7_1_3 0
B_2_1_2_8_1_1 0
B_2_1_2_8_1_2 0
B_2_1_2_8_1_3 0
B_2_1_3_1_1_1 0
B_2_1_3_1_1_2 0
B_2_1_3_1_1_3 0
B_2_1_3_2_1_1 0
B_2_1_3_2_1_2 0
B_2_1_3_2_1_3 0
B_2_1_3_3_1_1 0
B_2_1_3_3_1_2 0
B_2_1_3_3_1_3 0
B_2_1_3_4_1_1 0
B_2_1_3_4_1_2 0
B_2_1_3_4_1_3 1
B_2_1_3_5_1_1 0
B_2_1_3_5_1_2 0
B_2_1_3_5_1_3 0
B_2_1_3_6_1_1 0
B_2_1_3_6_1_2 0
B_2_1_3_6_1_3 0
B_2_1_3_7_1_1 0
B_2_1_3_7_1_2 0
B_2_1_3_7_1_3 0
B_2_1_3_8_1_1 0
B_2_1_3_8_1_2 0
B_2_1_3_8_1_3 0
B_3_1_1_1_1_1 0
B_3_1_1_1_1_2 0
B_3_1_1_1_1_3 0
B_3_1_1_2_1_1 0
B_3_1_1_2_1_2 0
B_3_1_1_2_1_3 0
B_3_1_1_3_1_1 0
B_3_1_1_3_1_2 0
B_3_1_1_3_1_3 0
B_3_1_1_4_1_1 0
B_3_1_1_4_1_2 0
B_3_1_1_4_1_3 0
B_3_1_1_5_1_1 0
B_3_1_1_5_1_2 0
B_3_1_1_5_1_3 1
B_3_1_1_6_1_1 1
B_3_1_1_6_1_2 0
B_3_1_1_6_1_3 0
B_3_1_1_7_1_1 1
B_3_1_1_7_1_2 0
B_3_1_1_7_1_3 0
B_3_1_1_8_1_1 0
B_3_1_1_8_1_2 0
B_3_1_1_8_1_3 0
B_3_1_2_1_1_1 0
B_3_1_2_1_1_2 0
B_3_1_2_1_1_3 0
B_3_1_2_2_1_1 0
B_3_1_2_2_1_2 0
B_3_1_2_2_1_3 0
B_3_1_2_3_1_1 0
B_3_1_2_3_1_2 0
B_3_1_2_3_1_3 0
B_3_1_2_4_1_1 0
B_3_1_2_4_1_2 1
B_3_1_2_4_1_3 0
B_3_1_2_5_1_1 0
B_3_1_2_5_1_2 0
B_3_1_2_5_1_3 0
B_3_1_2_6_1_1 0
B_3_1_2_6_1_2 1
B_3_1_2_6_1_3 1
B_3_1_2_7_1_1 0
B_3_1_2_7_1_2 0
B_3_1_2_7_1_3 1
B_3_1_2_8_1_1 0
B_3_1_2_8_1_2 0
B_3_1_2_8_1_3 1
B_3_1_3_1_1_1 0
B_3_1_3_1_1_2 0
B_3_1_3_1_1_3 0
B_3_1_3_2_1_1 0
B_3_1_3_2_1_2 0
B_3_1_3_2_1_3 0
B_3_1_3_3_1_1 0
B_3_1_3_3_1_2 0
B_3_1_3_3_1_3 0
B_3_1_3_4_1_1 0
B_3_1_3_4_1_2 0
B_3_1_3_4_1_3 0
B_3_1_3_5_1_1 0
B_3_1_3_5_1_2 0
B_3_1_3_5_1_3 0
B_3_1_3_6_1_1 0
B_3_1_3_6_1_2 0
B_3_1_3_6_1_3 1
B_3_1_3_7_1_1 0
B_3_1_3_7_1_2 0
B_3_1_3_7_1_3 1
B_3_1_3_8_1_1 0
B_3_1_3_8_1_2 0
B_3_1_3_8_1_3 0
B_4_1_1_1_1_1 0
B_4_1_1_1_1_2 0
B_4_1_1_1_1_3 0
B_4_1_1_2_1_1 0
B_4_1_1_2_1_2 0
B_4_1_1_2_1_3 0
B_4_1_1_3_1_1 0
B_4_1_1_3_1_2 0
B_4_1_1_3_1_3 0
B_4_1_1_4_1_1 0
B_4_1_1_4_1_2 0
B_4_1_1_4_1_3 0
B_4_1_1_5_1_1 1
B_4_1_1_5_1_2 0
B_4_1_1_5_1_3 1
B_4_1_1_6_1_1 1
B_4_1_1_6_1_2 0
B_4_1_1_6_1_3 0
B_4_1_1_7_1_1 1
B_4_1_1_7_1_2 0
B_4_1_1_7_1_3 0
B_4_1_1_8_1_1 0
B_4_1_1_8_1_2 0
B_4_1_1_8_1_3 0
B_4_1_2_1_1_1 0
B_4_1_2_1_1_2 0
B_4_1_2_1_1_3 0
B_4_1_2_2_1_1 0
B_4_1_2_2_1_2 0
B_4_1_2_2_1_3 0
B_4_1_2_3_1_1 0
B_4_1_2_3_1_2 0
B_4_1_2_3_1_3 0
B_4_1_2_4_1_1 0
B_4_1_2_4_1_2 0
B_4_1_2_4_1_3 0
B_4_1_2_5_1_1 0
B_4_1_2_5_1_2 1
B_4_1_2_5_1_3 0
B_4_1_2_6_1_1 0
B_4_1_2_6_1_2 0
B_4_1_2_6_1_3 1
B_4_1_2_7_1_1 0
B_4_1_2_7_1_2 1
B_4_1_2_7_1_3 1
B_4_1_2_8_1_1 0
B_4_1_2_8_1_2 1
B_4_1_2_8_1_3 1
B_4_1_3_1_1_1 0
B_4_1_3_1_1_2 0
B_4_1_3_1_1_3 0
B_4_1_3_2_1_1 0
B_4_1_3_2_1_2 0
B_4_1_3_2_1_3 0
B_4_1_3_3_1_1 0
B_4_1_3_3_1_2 0
B_4_1_3_3_1_3 0
B_4_1_3_4_1_1 0
B_4_1_3_4_1_2 0
B_4_1_3_4_1_3 0
B_4_1_3_5_1_1 0
B_4_1_3_5_1_2 0
B_4_1_3_5_1_3 0
B_4_1_3_6_1_1 0
B_4_1_3_6_1_2 1
B_4_1_3_6_1_3 1
B_4_1_3_7_1_1 0
B_4_1_3_7_1_2 0
B_4_1_3_7_1_3 1
B_4_1_3_8_1_1 0
B_4_1_3_8_1_2 0
B_4_1_3_8_1_3 0
B_5_1_1_1_1_1 0
B_5_1_1_1_1_2 0
B_5_1_1_1_1_3 0
B_5_1_1_2_1_1 0
B_5_1_1_2_1_2 0
B_5_1_1_2_1_3 0
B_5_1_1_3_1_1 0
B_5_1_1_3_1_2 0
B_5_1_1_3_1_3 0
B_5_1_1_4_1_1 0
B_5_1_1_4_1_2 0
B_5_1_1_4_1_3 0
B_5_1_1_5_1_1 0
B_5_1_1_5_1_2 0
B_5_1_1_5_1_3 0
B_5_1_1_6_1_1 1
B_5_1_1_6_1_2 1
B_5_1_1_6_1_3 0
B_5_1_1_7_1_1 1
B_5_1_1_7_1_2 1
B_5_1_1_7_1_3 0
B_5_1_1_8_1_1 0
B_5_1_1_8_1_2 0
B_5_1_1_8_1_3 0
B_5_1_2_1_1_1 0
B_5_1_2_1_1_2 0
B_5_1_2_1_1_3 0
B_5_1_2_2_1_1 0
B_5_1_2_2_1_2 0
B_5_1_2_2_1_3 0
B_5_1_2_3_1_1 0
B_5_1_2_3_1_2 0
B_5_1_2_3_1_3 0
B_5_1_2_4_1_1 0
B_5_1_2_4_1_2 0
B_5_1_2_4_1_3 0
B_5_1_2_5_1_1 0
B_5_1_2_5_1_2 0
B_5_1_2_5_1_3 0
B_5_1_2_6_1_1 0
B_5_1_2_6_1_2 0
B_5_1_2_6_1_3 1
B_5_1_2_7_1_1 0
B_5_1_2_7_1_2 0
B_5_1_2_7_1_3 1
B_5_1_2_8_1_1 0
B_5_1_2_8_1_2 1
B_5_1_2_8_1_3 1
B_5_1_3_1_1_1 0
B_5_1_3_1_1_2 0
B_5_1_3_1_1_3 0
B_5_1_3_2_1_1 0
B_5_1_3_2_1_2 0
B_5_1_3_2_1_3 0
B_5_1_3_3_1_1 0
B_5_1_3_3_1_2 0
B_5_1_3_3_1_3 0
B_5_1_3_4_1_1 0
B_5_1_3_4_1_2 0
B_5_1_3_4_1_3 0
B_5_1_3_5_1_1 0
B_5_1_3_5_1_2 0
B_5_1_3_5_1_3 0
B_5_1_3_6_1_1 0
B_5_1_3_6_1_2 0
B_5_1_3_6_1_3 0
B_5_1_3_7_1_1 0
B_5_1_3_7_1_2 0
B_5_1_3_7_1_3 0
B_5_1_3_8_1_1 0
B_5_1_3_8_1_2 1
B_5_1_3_8_1_3 0
B_6_1_1_1_1_1 0
B_6_1_1_1_1_2 0
B_6_1_1_1_1_3 0
B_6_1_1_2_1_1 0
B_6_1_1_2_1_2 0
B_6_1_1_2_1_3 0
B_6_1_1_3_1_1 0
B_6_1_1_3_1_2 0
B_6_1_1_3_1_3 0
B_6_1_1_4_1_1 0
B_6_1_1_4_1_2 0
B_6_1_1_4_1_3 0
B_6_1_1_5_1_1 0
B_6_1_1_5_1_2 0
B_6_1_1_5_1_3 0
B_6_1_1_6_1_1 0
B_6_1_1_6_1_2 0
B_6_1_1_6_1_3 0
B_6_1_1_7_1_1 0
B_6_1_1_7_1_2 1
B_6_1_1_7_1_3 0
B_6_1_1_8_1_1 1
B_6_1_1_8_1_2 0
B_6_1_1_8_1_3 0
B_6_1_2_1_1_1 0
B_6_1_2_1_1_2 0
B_6_1_2_1_1_3 0
B_6_1_2_2_1_1 0
B_6_1_2_2_1_2 0
B_6_1_2_2_1_3 0
B_6_1_2_3_1_1 0
B_6_1_2_3_1_2 0
B_6_1_2_3_1_3 0
B_6_1_2_4_1_1 0
B_6_1_2_4_1_2 0
B_6_1_2_4_1_3 0
B_6_1_2_5_1_1 0
B_6_1_2_5_1_2 0
B_6_1_2_5_1_3 0
B_6_1_2_6_1_1 0
B_6_1_2_6_1_2 0
B_6_1_2_6_1_3 0
B_6_1_2_7_1_1 0
B_6_1_2_7_1_2 0
B_6_1_2_7_1_3 0
B_6_1_2_8_1_1 0
B_6_1_2_8_1_2 1
B_6_1_2_8_1_3 1
B_6_1_3_1_1_1 0
B_6_1_3_1_1_2 0
B_6_1_3_1_1_3 0
B_6_1_3_2_1_1 0
B_6_1_3_2_1_2 0
B_6_1_3_2_1_3 0
B_6_1_3_3_1_1 0
B_6_1_3_3_1_2 0
B_6_1_3_3_1_3 0
B_6_1_3_4_1_1 0
B_6_1_3_4_1_2 0
B_6_1_3_4_1_3 0
B_6_1_3_5_1_1 0
B_6_1_3_5_1_2 0
B_6_1_3_5_1_3 0
B_6_1_3_6_1_1 0
B_6_1_3_6_1_2 0
B_6_1_3_6_1_3 0
B_6_1_3_7_1_1 0
B_6_1_3_7_1_2 0
B_6_1_3_7_1_3 0
B_6_1_3_8_1_1 0
B_6_1_3_8_1_2 0
B_6_1_3_8_1_3 1
B_7_1_1_1_1_1 0
B_7_1_1_1_1_2 0
B_7_1_1_1_1_3 0
B_7_1_1_2_1_1 0
B_7_1_1_2_1_2 0
B_7_1_1_2_1_3 0
B_7_1_1_3_1_1 0
B_7_1_1_3_1_2 0
B_7_1_1_3_1_3 0
B_7_1_1_4_1_1 0
B_7_1_1_4_1_2 0
B_7_1_1_4_1_3 0
B_7_1_1_5_1_1 0
B_7_1_1_5_1_2 0
B_7_1_1_5_1_3 0
B_7_1_1_6_1_1 0
B_7_1_1_6_1_2 0
B_7_1_1_6_1_3 0
B_7_1_1_7_1_1 0
B_7_1_1_7_1_2 0
B_7_1_1_7_1_3 0
B_7_1_1_8_1_1 1
B_7_1_1_8_1_2 0
B_7_1_1_8_1_3 0
B_7_1_2_1_1_1 0
B_7_1_2_1_1_2 0
B_7_1_2_1_1_3 0
B_7_1_2_2_1_1 0
B_7_1_2_2_1_2 0
B_7_1_2_2_1_3 0
B_7_1_2_3_1_1 0
B_7_1_2_3_1_2 0
B_7_1_2_3_1_3 0
B_7_1_2_4_1_1 0
B_7_1_2_4_1_2 0
B_7_1_2_4_1_3 0
B_7_1_2_5_1_1 0
B_7_1_2_5_1_2 0
B_7_1_2_5_1_3 0
B_7_1_2_6_1_1 0
B_7_1_2_6_1_2 0
B_7_1_2_6_1_3 0
B_7_1_2_7_1_1 0
B_7_1_2_7_1_2 0
B_7_1_2_7_1_3 0
B_7_1_2_8_1_1 0
B_7_1_2_8_1_2 1
B_7_1_2_8_1_3 1
B_7_1_3_1_1_1 0
B_7_1_3_1_1_2 0
B_7_1_3_1_1_3 0
B_7_1_3_2_1_1 0
B_7_1_3_2_1_2 0
B_7_1_3_2_1_3 0
B_7_1_3_3_1_1 0
B_7_1_3_3_1_2 0
B_7_1_3_3_1_3 0
B_7_1_3_4_1_1 0
B_7_1_3_4_1_2 0
B_7_1_3_4_1_3 0
B_7_1_3_5_1_1 0
B_7_1_3_5_1_2 0
B_7_1_3_5_1_3 0
B_7_1_3_6_1_1 0
B_7_1_3_6_1_2 0
B_7_1_3_6_1_3 0
B_7_1_3_7_1_1 0
B_7_1_3_7_1_2 0
B_7_1_3_7_1_3 0
B_7_1_3_8_1_1 0
B_7_1_3_8_1_2 0
B_7_1_3_8_1_3 1
B_8_1_1_1_1_1 0
B_8_1_1_1_1_2 0
B_8_1_1_1_1_3 0
B_8_1_1_2_1_1 0
B_8_1_1_2_1_2 0
B_8_1_1_2_1_3 0
B_8_1_1_3_1_1 0
B_8_1_1_3_1_2 0
B_8_1_1_3_1_3 0
B_8_1_1_4_1_1 0
B_8_1_1_4_1_2 0
B_8_1_1_4_1_3 0
B_8_1_1_5_1_1 0
B_8_1_1_5_1_2 0
B_8_1_1_5_1_3 0
B_8_1_1_6_1_1 0
B_8_1_1_6_1_2 0
B_8_1_1_6_1_3 0
B_8_1_1_7_1_1 0
B_8_1_1_7_1_2 0
B_8_1_1_7_1_3 0
B_8_1_1_8_1_1 0
B_8_1_1_8_1_2 0
B_8_1_1_8_1_3 0
B_8_1_2_1_1_1 0
B_8_1_2_1_1_2 0
B_8_1_2_1_1_3 0
B_8_1_2_2_1_1 0
B_8_1_2_2_1_2 0
B_8_1_2_2_1_3 0
B_8_1_2_3_1_1 0
B_8_1_2_3_1_2 0
B_8_1_2_3_1_3 0
B_8_1_2_4_1_1 0
B_8_1_2_4_1_2 0
B_8_1_2_4_1_3 0
B_8_1_2_5_1_1 0
B_8_1_2_5_1_2 0
B_8_1_2_5_1_3 0
B_8_1_2_6_1_1 0
B_8_1_2_6_1_2 0
B_8_1_2_6_1_3 0
B_8_1_2_7_1_1 0
B_8_1_2_7_1_2 0
B_8_1_2_7_1_3 0
B_8_1_2_8_1_1 0
B_8_1_2_8_1_2 0
B_8_1_2_8_1_3 0
B_8_1_3_1_1_1 0
B_8_1_3_1_1_2 0
B_8_1_3_1_1_3 0
B_8_1_3_2_1_1 0
B_8_1_3_2_1_2 0
B_8_1_3_2_1_3 0
B_8_1_3_3_1_1 0
B_8_1_3_3_1_2 0
B_8_1_3_3_1_3 0
B_8_1_3_4_1_1 0
B_8_1_3_4_1_2 0
B_8_1_3_4_1_3 0
B_8_1_3_5_1_1 0
B_8_1_3_5_1_2 0
B_8_1_3_5_1_3 0
B_8_1_3_6_1_1 0
B_8_1_3_6_1_2 0
B_8_1_3_6_1_3 0
B_8_1_3_7_1_1 0
B_8_1_3_7_1_2 0
B_8_1_3_7_1_3 0
B_8_1_3_8_1_1 0
B_8_1_3_8_1_2 0
B_8_1_3_8_1_3 0
